49646 164 1225 182572 54482 0.96
49790 156 1225 231009 55498 0.98
49742 159 1225 137044 55502 0.94
50090 132 1225 136558 54852 0.98
49438 185 1225 489338 55074 0.96
49608 202 1225 303045 55428 0.9
50302 164 1225 281917 56000 0.92
50374 136 1225 116377 55942 0.96
49354 183 1225 181389 56448 0.9
49700 137 1225 142527 54778 0.96
